; benchmark generated from python API
(set-info :status unknown)
(declare-fun cell_1_6 () Int)
(declare-fun cell_1_7 () Int)
(declare-fun cell_2_3 () Int)
(declare-fun cell_2_7 () Int)
(declare-fun cell_3_2 () Int)
(declare-fun cell_3_6 () Int)
(declare-fun cell_4_4 () Int)
(declare-fun cell_4_9 () Int)
(declare-fun cell_5_1 () Int)
(declare-fun cell_5_8 () Int)
(declare-fun cell_6_4 () Int)
(declare-fun cell_7_5 () Int)
(declare-fun cell_8_8 () Int)
(declare-fun cell_9_3 () Int)
(declare-fun cell_1_1 () Int)
(declare-fun cell_2_1 () Int)
(declare-fun cell_3_1 () Int)
(declare-fun cell_4_1 () Int)
(declare-fun cell_6_1 () Int)
(declare-fun cell_7_1 () Int)
(declare-fun cell_8_1 () Int)
(declare-fun cell_9_1 () Int)
(declare-fun cell_1_2 () Int)
(declare-fun cell_2_2 () Int)
(declare-fun cell_4_2 () Int)
(declare-fun cell_5_2 () Int)
(declare-fun cell_6_2 () Int)
(declare-fun cell_7_2 () Int)
(declare-fun cell_8_2 () Int)
(declare-fun cell_9_2 () Int)
(declare-fun cell_1_3 () Int)
(declare-fun cell_3_3 () Int)
(declare-fun cell_4_3 () Int)
(declare-fun cell_5_3 () Int)
(declare-fun cell_6_3 () Int)
(declare-fun cell_7_3 () Int)
(declare-fun cell_8_3 () Int)
(declare-fun cell_1_4 () Int)
(declare-fun cell_2_4 () Int)
(declare-fun cell_3_4 () Int)
(declare-fun cell_5_4 () Int)
(declare-fun cell_7_4 () Int)
(declare-fun cell_8_4 () Int)
(declare-fun cell_9_4 () Int)
(declare-fun cell_1_5 () Int)
(declare-fun cell_2_5 () Int)
(declare-fun cell_3_5 () Int)
(declare-fun cell_4_5 () Int)
(declare-fun cell_5_5 () Int)
(declare-fun cell_6_5 () Int)
(declare-fun cell_8_5 () Int)
(declare-fun cell_9_5 () Int)
(declare-fun cell_2_6 () Int)
(declare-fun cell_4_6 () Int)
(declare-fun cell_5_6 () Int)
(declare-fun cell_6_6 () Int)
(declare-fun cell_7_6 () Int)
(declare-fun cell_8_6 () Int)
(declare-fun cell_9_6 () Int)
(declare-fun cell_3_7 () Int)
(declare-fun cell_4_7 () Int)
(declare-fun cell_5_7 () Int)
(declare-fun cell_6_7 () Int)
(declare-fun cell_7_7 () Int)
(declare-fun cell_8_7 () Int)
(declare-fun cell_9_7 () Int)
(declare-fun cell_1_8 () Int)
(declare-fun cell_2_8 () Int)
(declare-fun cell_3_8 () Int)
(declare-fun cell_4_8 () Int)
(declare-fun cell_6_8 () Int)
(declare-fun cell_7_8 () Int)
(declare-fun cell_9_8 () Int)
(declare-fun cell_1_9 () Int)
(declare-fun cell_2_9 () Int)
(declare-fun cell_3_9 () Int)
(declare-fun cell_5_9 () Int)
(declare-fun cell_6_9 () Int)
(declare-fun cell_7_9 () Int)
(declare-fun cell_8_9 () Int)
(declare-fun cell_9_9 () Int)
(assert
 (= cell_1_6 1))
(assert
 (= cell_1_7 2))
(assert
 (= cell_2_3 2))
(assert
 (= cell_2_7 1))
(assert
 (= cell_3_2 1))
(assert
 (= cell_3_6 2))
(assert
 (= cell_4_4 2))
(assert
 (= cell_4_9 1))
(assert
 (= cell_5_1 1))
(assert
 (= cell_5_8 2))
(assert
 (= cell_6_4 1))
(assert
 (= cell_7_5 1))
(assert
 (= cell_8_8 1))
(assert
 (= cell_9_3 1))
(assert
 (let (($x565 (= cell_1_1 9)))
 (let (($x2738 (= cell_1_1 8)))
 (let (($x7844 (= cell_1_1 7)))
 (let (($x717 (= cell_1_1 6)))
 (let (($x584 (= cell_1_1 5)))
 (let (($x94 (= cell_1_1 4)))
 (let (($x7786 (= cell_1_1 3)))
 (let (($x7607 (= cell_1_1 2)))
 (let (($x2138 (= cell_1_1 1)))
 (or $x2138 $x7607 $x7786 $x94 $x584 $x717 $x7844 $x2738 $x565)))))))))))
(assert
 (let (($x1045 (= cell_2_1 9)))
 (let (($x1000 (= cell_2_1 8)))
 (let (($x6967 (= cell_2_1 7)))
 (let (($x1451 (= cell_2_1 6)))
 (let (($x2089 (= cell_2_1 5)))
 (let (($x1591 (= cell_2_1 4)))
 (let (($x1509 (= cell_2_1 3)))
 (let (($x2010 (= cell_2_1 2)))
 (let (($x113 (= cell_2_1 1)))
 (or $x113 $x2010 $x1509 $x1591 $x2089 $x1451 $x6967 $x1000 $x1045)))))))))))
(assert
 (let (($x1246 (= cell_3_1 9)))
 (let (($x1571 (= cell_3_1 8)))
 (let (($x3307 (= cell_3_1 7)))
 (let (($x1257 (= cell_3_1 6)))
 (let (($x7368 (= cell_3_1 5)))
 (let (($x3749 (= cell_3_1 4)))
 (let (($x2833 (= cell_3_1 3)))
 (let (($x548 (= cell_3_1 2)))
 (let (($x4180 (= cell_3_1 1)))
 (or $x4180 $x548 $x2833 $x3749 $x7368 $x1257 $x3307 $x1571 $x1246)))))))))))
(assert
 (let (($x1791 (= cell_4_1 9)))
 (let (($x294 (= cell_4_1 8)))
 (let (($x570 (= cell_4_1 7)))
 (let (($x120 (= cell_4_1 6)))
 (let (($x631 (= cell_4_1 5)))
 (let (($x2273 (= cell_4_1 4)))
 (let (($x3537 (= cell_4_1 3)))
 (let (($x3179 (= cell_4_1 2)))
 (let (($x2511 (= cell_4_1 1)))
 (or $x2511 $x3179 $x3537 $x2273 $x631 $x120 $x570 $x294 $x1791)))))))))))
(assert
 (let (($x2057 (= cell_5_1 1)))
 (or $x2057 (= cell_5_1 2) (= cell_5_1 3) (= cell_5_1 4) (= cell_5_1 5) (= cell_5_1 6) (= cell_5_1 7) (= cell_5_1 8) (= cell_5_1 9))))
(assert
 (let (($x1514 (= cell_6_1 9)))
 (let (($x1694 (= cell_6_1 8)))
 (let (($x2712 (= cell_6_1 7)))
 (let (($x407 (= cell_6_1 6)))
 (let (($x1721 (= cell_6_1 5)))
 (let (($x3794 (= cell_6_1 4)))
 (let (($x3702 (= cell_6_1 3)))
 (let (($x2918 (= cell_6_1 2)))
 (let (($x1301 (= cell_6_1 1)))
 (or $x1301 $x2918 $x3702 $x3794 $x1721 $x407 $x2712 $x1694 $x1514)))))))))))
(assert
 (let (($x1985 (= cell_7_1 9)))
 (let (($x181 (= cell_7_1 8)))
 (let (($x7484 (= cell_7_1 7)))
 (let (($x813 (= cell_7_1 6)))
 (let (($x3534 (= cell_7_1 5)))
 (let (($x6700 (= cell_7_1 4)))
 (let (($x1595 (= cell_7_1 3)))
 (let (($x35 (= cell_7_1 2)))
 (let (($x486 (= cell_7_1 1)))
 (or $x486 $x35 $x1595 $x6700 $x3534 $x813 $x7484 $x181 $x1985)))))))))))
(assert
 (let (($x3087 (= cell_8_1 9)))
 (let (($x2710 (= cell_8_1 8)))
 (let (($x7687 (= cell_8_1 7)))
 (let (($x512 (= cell_8_1 6)))
 (let (($x2713 (= cell_8_1 5)))
 (let (($x2433 (= cell_8_1 4)))
 (let (($x118 (= cell_8_1 3)))
 (let (($x580 (= cell_8_1 2)))
 (let (($x4229 (= cell_8_1 1)))
 (or $x4229 $x580 $x118 $x2433 $x2713 $x512 $x7687 $x2710 $x3087)))))))))))
(assert
 (let (($x3867 (= cell_9_1 9)))
 (let (($x1615 (= cell_9_1 8)))
 (let (($x795 (= cell_9_1 7)))
 (let (($x1021 (= cell_9_1 6)))
 (let (($x3715 (= cell_9_1 5)))
 (let (($x38 (= cell_9_1 4)))
 (let (($x471 (= cell_9_1 3)))
 (let (($x2485 (= cell_9_1 2)))
 (let (($x1103 (= cell_9_1 1)))
 (or $x1103 $x2485 $x471 $x38 $x3715 $x1021 $x795 $x1615 $x3867)))))))))))
(assert
 (let (($x7771 (= cell_1_2 9)))
 (let (($x820 (= cell_1_2 8)))
 (let (($x2559 (= cell_1_2 7)))
 (let (($x1145 (= cell_1_2 6)))
 (let (($x1203 (= cell_1_2 5)))
 (let (($x1396 (= cell_1_2 4)))
 (let (($x2605 (= cell_1_2 3)))
 (let (($x2143 (= cell_1_2 2)))
 (let (($x2768 (= cell_1_2 1)))
 (or $x2768 $x2143 $x2605 $x1396 $x1203 $x1145 $x2559 $x820 $x7771)))))))))))
(assert
 (let (($x790 (= cell_2_2 9)))
 (let (($x2526 (= cell_2_2 8)))
 (let (($x4001 (= cell_2_2 7)))
 (let (($x3459 (= cell_2_2 6)))
 (let (($x1420 (= cell_2_2 5)))
 (let (($x802 (= cell_2_2 4)))
 (let (($x42 (= cell_2_2 3)))
 (let (($x3814 (= cell_2_2 2)))
 (let (($x2468 (= cell_2_2 1)))
 (or $x2468 $x3814 $x42 $x802 $x1420 $x3459 $x4001 $x2526 $x790)))))))))))
(assert
 (let (($x1700 (= cell_3_2 1)))
 (or $x1700 (= cell_3_2 2) (= cell_3_2 3) (= cell_3_2 4) (= cell_3_2 5) (= cell_3_2 6) (= cell_3_2 7) (= cell_3_2 8) (= cell_3_2 9))))
(assert
 (let (($x2773 (= cell_4_2 9)))
 (let (($x4104 (= cell_4_2 8)))
 (let (($x1492 (= cell_4_2 7)))
 (let (($x7847 (= cell_4_2 6)))
 (let (($x1496 (= cell_4_2 5)))
 (let (($x566 (= cell_4_2 4)))
 (let (($x1859 (= cell_4_2 3)))
 (let (($x677 (= cell_4_2 2)))
 (let (($x2861 (= cell_4_2 1)))
 (or $x2861 $x677 $x1859 $x566 $x1496 $x7847 $x1492 $x4104 $x2773)))))))))))
(assert
 (let (($x1704 (= cell_5_2 9)))
 (let (($x91 (= cell_5_2 8)))
 (let (($x3528 (= cell_5_2 7)))
 (let (($x2558 (= cell_5_2 6)))
 (let (($x6890 (= cell_5_2 5)))
 (let (($x6616 (= cell_5_2 4)))
 (let (($x2166 (= cell_5_2 3)))
 (let (($x1826 (= cell_5_2 2)))
 (let (($x2513 (= cell_5_2 1)))
 (or $x2513 $x1826 $x2166 $x6616 $x6890 $x2558 $x3528 $x91 $x1704)))))))))))
(assert
 (let (($x2378 (= cell_6_2 9)))
 (let (($x2198 (= cell_6_2 8)))
 (let (($x1838 (= cell_6_2 7)))
 (let (($x3439 (= cell_6_2 6)))
 (let (($x736 (= cell_6_2 5)))
 (let (($x1812 (= cell_6_2 4)))
 (let (($x354 (= cell_6_2 3)))
 (let (($x750 (= cell_6_2 2)))
 (let (($x3067 (= cell_6_2 1)))
 (or $x3067 $x750 $x354 $x1812 $x736 $x3439 $x1838 $x2198 $x2378)))))))))))
(assert
 (let (($x2704 (= cell_7_2 9)))
 (let (($x200 (= cell_7_2 8)))
 (let (($x1868 (= cell_7_2 7)))
 (let (($x1799 (= cell_7_2 6)))
 (let (($x3622 (= cell_7_2 5)))
 (let (($x3128 (= cell_7_2 4)))
 (let (($x3835 (= cell_7_2 3)))
 (let (($x6699 (= cell_7_2 2)))
 (let (($x1394 (= cell_7_2 1)))
 (or $x1394 $x6699 $x3835 $x3128 $x3622 $x1799 $x1868 $x200 $x2704)))))))))))
(assert
 (let (($x1684 (= cell_8_2 9)))
 (let (($x6581 (= cell_8_2 8)))
 (let (($x2266 (= cell_8_2 7)))
 (let (($x2365 (= cell_8_2 6)))
 (let (($x2934 (= cell_8_2 5)))
 (let (($x3510 (= cell_8_2 4)))
 (let (($x7796 (= cell_8_2 3)))
 (let (($x2362 (= cell_8_2 2)))
 (let (($x1334 (= cell_8_2 1)))
 (or $x1334 $x2362 $x7796 $x3510 $x2934 $x2365 $x2266 $x6581 $x1684)))))))))))
(assert
 (let (($x1681 (= cell_9_2 9)))
 (let (($x848 (= cell_9_2 8)))
 (let (($x3645 (= cell_9_2 7)))
 (let (($x2545 (= cell_9_2 6)))
 (let (($x3792 (= cell_9_2 5)))
 (let (($x496 (= cell_9_2 4)))
 (let (($x167 (= cell_9_2 3)))
 (let (($x1438 (= cell_9_2 2)))
 (let (($x2441 (= cell_9_2 1)))
 (or $x2441 $x1438 $x167 $x496 $x3792 $x2545 $x3645 $x848 $x1681)))))))))))
(assert
 (let (($x306 (= cell_1_3 9)))
 (let (($x1973 (= cell_1_3 8)))
 (let (($x3161 (= cell_1_3 7)))
 (let (($x8026 (= cell_1_3 6)))
 (let (($x1785 (= cell_1_3 5)))
 (let (($x3305 (= cell_1_3 4)))
 (let (($x3399 (= cell_1_3 3)))
 (let (($x1003 (= cell_1_3 2)))
 (let (($x7527 (= cell_1_3 1)))
 (or $x7527 $x1003 $x3399 $x3305 $x1785 $x8026 $x3161 $x1973 $x306)))))))))))
(assert
 (let (($x82 (= cell_2_3 2)))
 (or (= cell_2_3 1) $x82 (= cell_2_3 3) (= cell_2_3 4) (= cell_2_3 5) (= cell_2_3 6) (= cell_2_3 7) (= cell_2_3 8) (= cell_2_3 9))))
(assert
 (let (($x74 (= cell_3_3 9)))
 (let (($x886 (= cell_3_3 8)))
 (let (($x219 (= cell_3_3 7)))
 (let (($x8013 (= cell_3_3 6)))
 (let (($x3531 (= cell_3_3 5)))
 (let (($x7795 (= cell_3_3 4)))
 (let (($x93 (= cell_3_3 3)))
 (let (($x6906 (= cell_3_3 2)))
 (let (($x803 (= cell_3_3 1)))
 (or $x803 $x6906 $x93 $x7795 $x3531 $x8013 $x219 $x886 $x74)))))))))))
(assert
 (let (($x2420 (= cell_4_3 9)))
 (let (($x1044 (= cell_4_3 8)))
 (let (($x564 (= cell_4_3 7)))
 (let (($x7821 (= cell_4_3 6)))
 (let (($x1710 (= cell_4_3 5)))
 (let (($x2669 (= cell_4_3 4)))
 (let (($x686 (= cell_4_3 3)))
 (let (($x1895 (= cell_4_3 2)))
 (let (($x2214 (= cell_4_3 1)))
 (or $x2214 $x1895 $x686 $x2669 $x1710 $x7821 $x564 $x1044 $x2420)))))))))))
(assert
 (let (($x2188 (= cell_5_3 9)))
 (let (($x3762 (= cell_5_3 8)))
 (let (($x2171 (= cell_5_3 7)))
 (let (($x3974 (= cell_5_3 6)))
 (let (($x4039 (= cell_5_3 5)))
 (let (($x646 (= cell_5_3 4)))
 (let (($x919 (= cell_5_3 3)))
 (let (($x1176 (= cell_5_3 2)))
 (let (($x111 (= cell_5_3 1)))
 (or $x111 $x1176 $x919 $x646 $x4039 $x3974 $x2171 $x3762 $x2188)))))))))))
(assert
 (let (($x7629 (= cell_6_3 9)))
 (let (($x628 (= cell_6_3 8)))
 (let (($x3244 (= cell_6_3 7)))
 (let (($x7313 (= cell_6_3 6)))
 (let (($x2178 (= cell_6_3 5)))
 (let (($x1494 (= cell_6_3 4)))
 (let (($x3577 (= cell_6_3 3)))
 (let (($x6970 (= cell_6_3 2)))
 (let (($x2347 (= cell_6_3 1)))
 (or $x2347 $x6970 $x3577 $x1494 $x2178 $x7313 $x3244 $x628 $x7629)))))))))))
(assert
 (let (($x1229 (= cell_7_3 9)))
 (let (($x3807 (= cell_7_3 8)))
 (let (($x1388 (= cell_7_3 7)))
 (let (($x2557 (= cell_7_3 6)))
 (let (($x6689 (= cell_7_3 5)))
 (let (($x1244 (= cell_7_3 4)))
 (let (($x6860 (= cell_7_3 3)))
 (let (($x7036 (= cell_7_3 2)))
 (let (($x2254 (= cell_7_3 1)))
 (or $x2254 $x7036 $x6860 $x1244 $x6689 $x2557 $x1388 $x3807 $x1229)))))))))))
(assert
 (let (($x3462 (= cell_8_3 9)))
 (let (($x3308 (= cell_8_3 8)))
 (let (($x1936 (= cell_8_3 7)))
 (let (($x333 (= cell_8_3 6)))
 (let (($x2760 (= cell_8_3 5)))
 (let (($x1869 (= cell_8_3 4)))
 (let (($x3764 (= cell_8_3 3)))
 (let (($x2859 (= cell_8_3 2)))
 (let (($x3848 (= cell_8_3 1)))
 (or $x3848 $x2859 $x3764 $x1869 $x2760 $x333 $x1936 $x3308 $x3462)))))))))))
(assert
 (let (($x285 (= cell_9_3 1)))
 (or $x285 (= cell_9_3 2) (= cell_9_3 3) (= cell_9_3 4) (= cell_9_3 5) (= cell_9_3 6) (= cell_9_3 7) (= cell_9_3 8) (= cell_9_3 9))))
(assert
 (let (($x780 (= cell_1_4 9)))
 (let (($x2314 (= cell_1_4 8)))
 (let (($x1423 (= cell_1_4 7)))
 (let (($x3058 (= cell_1_4 6)))
 (let (($x3275 (= cell_1_4 5)))
 (let (($x3684 (= cell_1_4 4)))
 (let (($x2639 (= cell_1_4 3)))
 (let (($x557 (= cell_1_4 2)))
 (let (($x3574 (= cell_1_4 1)))
 (or $x3574 $x557 $x2639 $x3684 $x3275 $x3058 $x1423 $x2314 $x780)))))))))))
(assert
 (let (($x201 (= cell_2_4 9)))
 (let (($x451 (= cell_2_4 8)))
 (let (($x974 (= cell_2_4 7)))
 (let (($x7989 (= cell_2_4 6)))
 (let (($x1020 (= cell_2_4 5)))
 (let (($x2329 (= cell_2_4 4)))
 (let (($x2479 (= cell_2_4 3)))
 (let (($x7693 (= cell_2_4 2)))
 (let (($x3743 (= cell_2_4 1)))
 (or $x3743 $x7693 $x2479 $x2329 $x1020 $x7989 $x974 $x451 $x201)))))))))))
(assert
 (let (($x1326 (= cell_3_4 9)))
 (let (($x1319 (= cell_3_4 8)))
 (let (($x7840 (= cell_3_4 7)))
 (let (($x3555 (= cell_3_4 6)))
 (let (($x7019 (= cell_3_4 5)))
 (let (($x1901 (= cell_3_4 4)))
 (let (($x1009 (= cell_3_4 3)))
 (let (($x1414 (= cell_3_4 2)))
 (let (($x49 (= cell_3_4 1)))
 (or $x49 $x1414 $x1009 $x1901 $x7019 $x3555 $x7840 $x1319 $x1326)))))))))))
(assert
 (let (($x3237 (= cell_4_4 2)))
 (or (= cell_4_4 1) $x3237 (= cell_4_4 3) (= cell_4_4 4) (= cell_4_4 5) (= cell_4_4 6) (= cell_4_4 7) (= cell_4_4 8) (= cell_4_4 9))))
(assert
 (let (($x2507 (= cell_5_4 9)))
 (let (($x1606 (= cell_5_4 8)))
 (let (($x3580 (= cell_5_4 7)))
 (let (($x3390 (= cell_5_4 6)))
 (let (($x4076 (= cell_5_4 5)))
 (let (($x6952 (= cell_5_4 4)))
 (let (($x7281 (= cell_5_4 3)))
 (let (($x2881 (= cell_5_4 2)))
 (let (($x2618 (= cell_5_4 1)))
 (or $x2618 $x2881 $x7281 $x6952 $x4076 $x3390 $x3580 $x1606 $x2507)))))))))))
(assert
 (let (($x6731 (= cell_6_4 1)))
 (or $x6731 (= cell_6_4 2) (= cell_6_4 3) (= cell_6_4 4) (= cell_6_4 5) (= cell_6_4 6) (= cell_6_4 7) (= cell_6_4 8) (= cell_6_4 9))))
(assert
 (let (($x2205 (= cell_7_4 9)))
 (let (($x2510 (= cell_7_4 8)))
 (let (($x650 (= cell_7_4 7)))
 (let (($x1882 (= cell_7_4 6)))
 (let (($x2342 (= cell_7_4 5)))
 (let (($x7835 (= cell_7_4 4)))
 (let (($x3495 (= cell_7_4 3)))
 (let (($x2628 (= cell_7_4 2)))
 (let (($x7332 (= cell_7_4 1)))
 (or $x7332 $x2628 $x3495 $x7835 $x2342 $x1882 $x650 $x2510 $x2205)))))))))))
(assert
 (let (($x1223 (= cell_8_4 9)))
 (let (($x1017 (= cell_8_4 8)))
 (let (($x2767 (= cell_8_4 7)))
 (let (($x3437 (= cell_8_4 6)))
 (let (($x1806 (= cell_8_4 5)))
 (let (($x619 (= cell_8_4 4)))
 (let (($x890 (= cell_8_4 3)))
 (let (($x3728 (= cell_8_4 2)))
 (let (($x1893 (= cell_8_4 1)))
 (or $x1893 $x3728 $x890 $x619 $x1806 $x3437 $x2767 $x1017 $x1223)))))))))))
(assert
 (let (($x756 (= cell_9_4 2)))
 (let (($x609 (= cell_9_4 1)))
 (or $x609 $x756 (= cell_9_4 3) (= cell_9_4 4) (= cell_9_4 5) (= cell_9_4 6) (= cell_9_4 7) (= cell_9_4 8) (= cell_9_4 9)))))
(assert
 (let (($x940 (= cell_1_5 9)))
 (let (($x10 (= cell_1_5 8)))
 (let (($x3430 (= cell_1_5 7)))
 (let (($x2968 (= cell_1_5 6)))
 (let (($x1887 (= cell_1_5 5)))
 (let (($x357 (= cell_1_5 4)))
 (let (($x3591 (= cell_1_5 3)))
 (let (($x3987 (= cell_1_5 2)))
 (let (($x3321 (= cell_1_5 1)))
 (or $x3321 $x3987 $x3591 $x357 $x1887 $x2968 $x3430 $x10 $x940)))))))))))
(assert
 (let (($x271 (= cell_2_5 9)))
 (let (($x2518 (= cell_2_5 8)))
 (let (($x7317 (= cell_2_5 7)))
 (let (($x537 (= cell_2_5 6)))
 (let (($x1697 (= cell_2_5 5)))
 (let (($x842 (= cell_2_5 4)))
 (let (($x2405 (= cell_2_5 3)))
 (let (($x2728 (= cell_2_5 2)))
 (let (($x843 (= cell_2_5 1)))
 (or $x843 $x2728 $x2405 $x842 $x1697 $x537 $x7317 $x2518 $x271)))))))))))
(assert
 (let (($x177 (= cell_3_5 9)))
 (let (($x1047 (= cell_3_5 8)))
 (let (($x3897 (= cell_3_5 7)))
 (let (($x2013 (= cell_3_5 6)))
 (let (($x1706 (= cell_3_5 5)))
 (let (($x3849 (= cell_3_5 4)))
 (let (($x1408 (= cell_3_5 3)))
 (let (($x3787 (= cell_3_5 2)))
 (let (($x358 (= cell_3_5 1)))
 (or $x358 $x3787 $x1408 $x3849 $x1706 $x2013 $x3897 $x1047 $x177)))))))))))
(assert
 (let (($x3988 (= cell_4_5 9)))
 (let (($x3279 (= cell_4_5 8)))
 (let (($x2817 (= cell_4_5 7)))
 (let (($x1370 (= cell_4_5 6)))
 (let (($x1547 (= cell_4_5 5)))
 (let (($x220 (= cell_4_5 4)))
 (let (($x2384 (= cell_4_5 3)))
 (let (($x1204 (= cell_4_5 2)))
 (let (($x3096 (= cell_4_5 1)))
 (or $x3096 $x1204 $x2384 $x220 $x1547 $x1370 $x2817 $x3279 $x3988)))))))))))
(assert
 (let (($x2203 (= cell_5_5 9)))
 (let (($x3406 (= cell_5_5 8)))
 (let (($x1836 (= cell_5_5 7)))
 (let (($x1268 (= cell_5_5 6)))
 (let (($x1652 (= cell_5_5 5)))
 (let (($x3021 (= cell_5_5 4)))
 (let (($x1903 (= cell_5_5 3)))
 (let (($x3939 (= cell_5_5 2)))
 (let (($x3226 (= cell_5_5 1)))
 (or $x3226 $x3939 $x1903 $x3021 $x1652 $x1268 $x1836 $x3406 $x2203)))))))))))
(assert
 (let (($x421 (= cell_6_5 9)))
 (let (($x653 (= cell_6_5 8)))
 (let (($x2987 (= cell_6_5 7)))
 (let (($x748 (= cell_6_5 6)))
 (let (($x1271 (= cell_6_5 5)))
 (let (($x3043 (= cell_6_5 4)))
 (let (($x667 (= cell_6_5 3)))
 (let (($x3617 (= cell_6_5 2)))
 (let (($x798 (= cell_6_5 1)))
 (or $x798 $x3617 $x667 $x3043 $x1271 $x748 $x2987 $x653 $x421)))))))))))
(assert
 (let (($x7663 (= cell_7_5 1)))
 (or $x7663 (= cell_7_5 2) (= cell_7_5 3) (= cell_7_5 4) (= cell_7_5 5) (= cell_7_5 6) (= cell_7_5 7) (= cell_7_5 8) (= cell_7_5 9))))
(assert
 (let (($x2473 (= cell_8_5 9)))
 (let (($x644 (= cell_8_5 8)))
 (let (($x3887 (= cell_8_5 7)))
 (let (($x1428 (= cell_8_5 6)))
 (let (($x2528 (= cell_8_5 5)))
 (let (($x990 (= cell_8_5 4)))
 (let (($x456 (= cell_8_5 3)))
 (let (($x2654 (= cell_8_5 2)))
 (let (($x7232 (= cell_8_5 1)))
 (or $x7232 $x2654 $x456 $x990 $x2528 $x1428 $x3887 $x644 $x2473)))))))))))
(assert
 (let (($x3558 (= cell_9_5 1)))
 (or $x3558 (= cell_9_5 2) (= cell_9_5 3) (= cell_9_5 4) (= cell_9_5 5) (= cell_9_5 6) (= cell_9_5 7) (= cell_9_5 8) (= cell_9_5 9))))
(assert
 (let (($x7763 (= cell_1_6 1)))
 (or $x7763 (= cell_1_6 2) (= cell_1_6 3) (= cell_1_6 4) (= cell_1_6 5) (= cell_1_6 6) (= cell_1_6 7) (= cell_1_6 8) (= cell_1_6 9))))
(assert
 (let (($x487 (= cell_2_6 9)))
 (let (($x935 (= cell_2_6 8)))
 (let (($x7674 (= cell_2_6 7)))
 (let (($x429 (= cell_2_6 6)))
 (let (($x7030 (= cell_2_6 5)))
 (let (($x2648 (= cell_2_6 4)))
 (let (($x2949 (= cell_2_6 3)))
 (let (($x7053 (= cell_2_6 2)))
 (let (($x1942 (= cell_2_6 1)))
 (or $x1942 $x7053 $x2949 $x2648 $x7030 $x429 $x7674 $x935 $x487)))))))))))
(assert
 (let (($x2779 (= cell_3_6 2)))
 (or (= cell_3_6 1) $x2779 (= cell_3_6 3) (= cell_3_6 4) (= cell_3_6 5) (= cell_3_6 6) (= cell_3_6 7) (= cell_3_6 8) (= cell_3_6 9))))
(assert
 (let (($x8016 (= cell_4_6 9)))
 (let (($x152 (= cell_4_6 8)))
 (let (($x484 (= cell_4_6 7)))
 (let (($x133 (= cell_4_6 6)))
 (let (($x7702 (= cell_4_6 5)))
 (let (($x6793 (= cell_4_6 4)))
 (let (($x3378 (= cell_4_6 3)))
 (let (($x2732 (= cell_4_6 2)))
 (let (($x1262 (= cell_4_6 1)))
 (or $x1262 $x2732 $x3378 $x6793 $x7702 $x133 $x484 $x152 $x8016)))))))))))
(assert
 (let (($x1532 (= cell_5_6 9)))
 (let (($x908 (= cell_5_6 8)))
 (let (($x2092 (= cell_5_6 7)))
 (let (($x3177 (= cell_5_6 6)))
 (let (($x293 (= cell_5_6 5)))
 (let (($x572 (= cell_5_6 4)))
 (let (($x313 (= cell_5_6 3)))
 (let (($x1336 (= cell_5_6 2)))
 (let (($x3081 (= cell_5_6 1)))
 (or $x3081 $x1336 $x313 $x572 $x293 $x3177 $x2092 $x908 $x1532)))))))))))
(assert
 (let (($x2993 (= cell_6_6 2)))
 (let (($x1362 (= cell_6_6 1)))
 (or $x1362 $x2993 (= cell_6_6 3) (= cell_6_6 4) (= cell_6_6 5) (= cell_6_6 6) (= cell_6_6 7) (= cell_6_6 8) (= cell_6_6 9)))))
(assert
 (let (($x721 (= cell_7_6 2)))
 (let (($x3483 (= cell_7_6 1)))
 (or $x3483 $x721 (= cell_7_6 3) (= cell_7_6 4) (= cell_7_6 5) (= cell_7_6 6) (= cell_7_6 7) (= cell_7_6 8) (= cell_7_6 9)))))
(assert
 (let (($x1066 (= cell_8_6 9)))
 (let (($x942 (= cell_8_6 8)))
 (let (($x274 (= cell_8_6 7)))
 (let (($x2277 (= cell_8_6 6)))
 (let (($x3449 (= cell_8_6 5)))
 (let (($x1352 (= cell_8_6 4)))
 (let (($x1724 (= cell_8_6 3)))
 (let (($x2957 (= cell_8_6 2)))
 (let (($x694 (= cell_8_6 1)))
 (or $x694 $x2957 $x1724 $x1352 $x3449 $x2277 $x274 $x942 $x1066)))))))))))
(assert
 (let (($x955 (= cell_9_6 2)))
 (let (($x1273 (= cell_9_6 1)))
 (or $x1273 $x955 (= cell_9_6 3) (= cell_9_6 4) (= cell_9_6 5) (= cell_9_6 6) (= cell_9_6 7) (= cell_9_6 8) (= cell_9_6 9)))))
(assert
 (let (($x7859 (= cell_1_7 2)))
 (or (= cell_1_7 1) $x7859 (= cell_1_7 3) (= cell_1_7 4) (= cell_1_7 5) (= cell_1_7 6) (= cell_1_7 7) (= cell_1_7 8) (= cell_1_7 9))))
(assert
 (let (($x3274 (= cell_2_7 1)))
 (or $x3274 (= cell_2_7 2) (= cell_2_7 3) (= cell_2_7 4) (= cell_2_7 5) (= cell_2_7 6) (= cell_2_7 7) (= cell_2_7 8) (= cell_2_7 9))))
(assert
 (let (($x108 (= cell_3_7 2)))
 (let (($x528 (= cell_3_7 1)))
 (or $x528 $x108 (= cell_3_7 3) (= cell_3_7 4) (= cell_3_7 5) (= cell_3_7 6) (= cell_3_7 7) (= cell_3_7 8) (= cell_3_7 9)))))
(assert
 (let (($x3083 (= cell_4_7 9)))
 (let (($x3214 (= cell_4_7 8)))
 (let (($x28 (= cell_4_7 7)))
 (let (($x6848 (= cell_4_7 6)))
 (let (($x129 (= cell_4_7 5)))
 (let (($x500 (= cell_4_7 4)))
 (let (($x3359 (= cell_4_7 3)))
 (let (($x6868 (= cell_4_7 2)))
 (let (($x458 (= cell_4_7 1)))
 (or $x458 $x6868 $x3359 $x500 $x129 $x6848 $x28 $x3214 $x3083)))))))))))
(assert
 (let (($x2274 (= cell_5_7 9)))
 (let (($x870 (= cell_5_7 8)))
 (let (($x68 (= cell_5_7 7)))
 (let (($x1805 (= cell_5_7 6)))
 (let (($x2316 (= cell_5_7 5)))
 (let (($x7 (= cell_5_7 4)))
 (let (($x2737 (= cell_5_7 3)))
 (let (($x1401 (= cell_5_7 2)))
 (let (($x3550 (= cell_5_7 1)))
 (or $x3550 $x1401 $x2737 $x7 $x2316 $x1805 $x68 $x870 $x2274)))))))))))
(assert
 (let (($x4243 (= cell_6_7 2)))
 (let (($x1650 (= cell_6_7 1)))
 (or $x1650 $x4243 (= cell_6_7 3) (= cell_6_7 4) (= cell_6_7 5) (= cell_6_7 6) (= cell_6_7 7) (= cell_6_7 8) (= cell_6_7 9)))))
(assert
 (let (($x1484 (= cell_7_7 9)))
 (let (($x2844 (= cell_7_7 8)))
 (let (($x2926 (= cell_7_7 7)))
 (let (($x1312 (= cell_7_7 6)))
 (let (($x1041 (= cell_7_7 5)))
 (let (($x3100 (= cell_7_7 4)))
 (let (($x535 (= cell_7_7 3)))
 (let (($x7466 (= cell_7_7 2)))
 (let (($x2412 (= cell_7_7 1)))
 (or $x2412 $x7466 $x535 $x3100 $x1041 $x1312 $x2926 $x2844 $x1484)))))))))))
(assert
 (let (($x2068 (= cell_8_7 9)))
 (let (($x1763 (= cell_8_7 8)))
 (let (($x3157 (= cell_8_7 7)))
 (let (($x1052 (= cell_8_7 6)))
 (let (($x2150 (= cell_8_7 5)))
 (let (($x2430 (= cell_8_7 4)))
 (let (($x3836 (= cell_8_7 3)))
 (let (($x2541 (= cell_8_7 2)))
 (let (($x511 (= cell_8_7 1)))
 (or $x511 $x2541 $x3836 $x2430 $x2150 $x1052 $x3157 $x1763 $x2068)))))))))))
(assert
 (let (($x7266 (= cell_9_7 2)))
 (let (($x1988 (= cell_9_7 1)))
 (or $x1988 $x7266 (= cell_9_7 3) (= cell_9_7 4) (= cell_9_7 5) (= cell_9_7 6) (= cell_9_7 7) (= cell_9_7 8) (= cell_9_7 9)))))
(assert
 (let (($x749 (= cell_1_8 9)))
 (let (($x3392 (= cell_1_8 8)))
 (let (($x2354 (= cell_1_8 7)))
 (let (($x171 (= cell_1_8 6)))
 (let (($x3615 (= cell_1_8 5)))
 (let (($x3387 (= cell_1_8 4)))
 (let (($x3670 (= cell_1_8 3)))
 (let (($x610 (= cell_1_8 2)))
 (let (($x2627 (= cell_1_8 1)))
 (or $x2627 $x610 $x3670 $x3387 $x3615 $x171 $x2354 $x3392 $x749)))))))))))
(assert
 (let (($x324 (= cell_2_8 9)))
 (let (($x1427 (= cell_2_8 8)))
 (let (($x1384 (= cell_2_8 7)))
 (let (($x1197 (= cell_2_8 6)))
 (let (($x1554 (= cell_2_8 5)))
 (let (($x3603 (= cell_2_8 4)))
 (let (($x1561 (= cell_2_8 3)))
 (let (($x687 (= cell_2_8 2)))
 (let (($x1347 (= cell_2_8 1)))
 (or $x1347 $x687 $x1561 $x3603 $x1554 $x1197 $x1384 $x1427 $x324)))))))))))
(assert
 (let (($x3654 (= cell_3_8 9)))
 (let (($x991 (= cell_3_8 8)))
 (let (($x2809 (= cell_3_8 7)))
 (let (($x3973 (= cell_3_8 6)))
 (let (($x96 (= cell_3_8 5)))
 (let (($x2556 (= cell_3_8 4)))
 (let (($x73 (= cell_3_8 3)))
 (let (($x1823 (= cell_3_8 2)))
 (let (($x379 (= cell_3_8 1)))
 (or $x379 $x1823 $x73 $x2556 $x96 $x3973 $x2809 $x991 $x3654)))))))))))
(assert
 (let (($x2098 (= cell_4_8 9)))
 (let (($x2631 (= cell_4_8 8)))
 (let (($x7486 (= cell_4_8 7)))
 (let (($x3333 (= cell_4_8 6)))
 (let (($x1344 (= cell_4_8 5)))
 (let (($x2860 (= cell_4_8 4)))
 (let (($x2622 (= cell_4_8 3)))
 (let (($x2941 (= cell_4_8 2)))
 (let (($x617 (= cell_4_8 1)))
 (or $x617 $x2941 $x2622 $x2860 $x1344 $x3333 $x7486 $x2631 $x2098)))))))))))
(assert
 (let (($x2137 (= cell_5_8 2)))
 (or (= cell_5_8 1) $x2137 (= cell_5_8 3) (= cell_5_8 4) (= cell_5_8 5) (= cell_5_8 6) (= cell_5_8 7) (= cell_5_8 8) (= cell_5_8 9))))
(assert
 (let (($x3845 (= cell_6_8 9)))
 (let (($x7582 (= cell_6_8 8)))
 (let (($x1105 (= cell_6_8 7)))
 (let (($x1609 (= cell_6_8 6)))
 (let (($x166 (= cell_6_8 5)))
 (let (($x2940 (= cell_6_8 4)))
 (let (($x1553 (= cell_6_8 3)))
 (let (($x3634 (= cell_6_8 2)))
 (let (($x847 (= cell_6_8 1)))
 (or $x847 $x3634 $x1553 $x2940 $x166 $x1609 $x1105 $x7582 $x3845)))))))))))
(assert
 (let (($x822 (= cell_7_8 9)))
 (let (($x479 (= cell_7_8 8)))
 (let (($x3993 (= cell_7_8 7)))
 (let (($x3809 (= cell_7_8 6)))
 (let (($x2217 (= cell_7_8 5)))
 (let (($x930 (= cell_7_8 4)))
 (let (($x1536 (= cell_7_8 3)))
 (let (($x2862 (= cell_7_8 2)))
 (let (($x1222 (= cell_7_8 1)))
 (or $x1222 $x2862 $x1536 $x930 $x2217 $x3809 $x3993 $x479 $x822)))))))))))
(assert
 (let (($x329 (= cell_8_8 1)))
 (or $x329 (= cell_8_8 2) (= cell_8_8 3) (= cell_8_8 4) (= cell_8_8 5) (= cell_8_8 6) (= cell_8_8 7) (= cell_8_8 8) (= cell_8_8 9))))
(assert
 (let (($x2727 (= cell_9_8 2)))
 (let (($x2589 (= cell_9_8 1)))
 (or $x2589 $x2727 (= cell_9_8 3) (= cell_9_8 4) (= cell_9_8 5) (= cell_9_8 6) (= cell_9_8 7) (= cell_9_8 8) (= cell_9_8 9)))))
(assert
 (let (($x342 (= cell_1_9 9)))
 (let (($x3674 (= cell_1_9 8)))
 (let (($x2058 (= cell_1_9 7)))
 (let (($x758 (= cell_1_9 6)))
 (let (($x849 (= cell_1_9 5)))
 (let (($x501 (= cell_1_9 4)))
 (let (($x4167 (= cell_1_9 3)))
 (let (($x229 (= cell_1_9 2)))
 (let (($x727 (= cell_1_9 1)))
 (or $x727 $x229 $x4167 $x501 $x849 $x758 $x2058 $x3674 $x342)))))))))))
(assert
 (let (($x452 (= cell_2_9 9)))
 (let (($x7063 (= cell_2_9 8)))
 (let (($x202 (= cell_2_9 7)))
 (let (($x4021 (= cell_2_9 6)))
 (let (($x4095 (= cell_2_9 5)))
 (let (($x1031 (= cell_2_9 4)))
 (let (($x3306 (= cell_2_9 3)))
 (let (($x151 (= cell_2_9 2)))
 (let (($x4145 (= cell_2_9 1)))
 (or $x4145 $x151 $x3306 $x1031 $x4095 $x4021 $x202 $x7063 $x452)))))))))))
(assert
 (let (($x257 (= cell_3_9 9)))
 (let (($x1978 (= cell_3_9 8)))
 (let (($x2004 (= cell_3_9 7)))
 (let (($x3114 (= cell_3_9 6)))
 (let (($x2676 (= cell_3_9 5)))
 (let (($x3155 (= cell_3_9 4)))
 (let (($x7670 (= cell_3_9 3)))
 (let (($x7092 (= cell_3_9 2)))
 (let (($x413 (= cell_3_9 1)))
 (or $x413 $x7092 $x7670 $x3155 $x2676 $x3114 $x2004 $x1978 $x257)))))))))))
(assert
 (let (($x1856 (= cell_4_9 1)))
 (or $x1856 (= cell_4_9 2) (= cell_4_9 3) (= cell_4_9 4) (= cell_4_9 5) (= cell_4_9 6) (= cell_4_9 7) (= cell_4_9 8) (= cell_4_9 9))))
(assert
 (let (($x3465 (= cell_5_9 2)))
 (let (($x2271 (= cell_5_9 1)))
 (or $x2271 $x3465 (= cell_5_9 3) (= cell_5_9 4) (= cell_5_9 5) (= cell_5_9 6) (= cell_5_9 7) (= cell_5_9 8) (= cell_5_9 9)))))
(assert
 (let (($x1466 (= cell_6_9 2)))
 (let (($x7865 (= cell_6_9 1)))
 (or $x7865 $x1466 (= cell_6_9 3) (= cell_6_9 4) (= cell_6_9 5) (= cell_6_9 6) (= cell_6_9 7) (= cell_6_9 8) (= cell_6_9 9)))))
(assert
 (let (($x1735 (= cell_7_9 9)))
 (let (($x2119 (= cell_7_9 8)))
 (let (($x1036 (= cell_7_9 7)))
 (let (($x4061 (= cell_7_9 6)))
 (let (($x7301 (= cell_7_9 5)))
 (let (($x1199 (= cell_7_9 4)))
 (let (($x2584 (= cell_7_9 3)))
 (let (($x6853 (= cell_7_9 2)))
 (let (($x3705 (= cell_7_9 1)))
 (or $x3705 $x6853 $x2584 $x1199 $x7301 $x4061 $x1036 $x2119 $x1735)))))))))))
(assert
 (let (($x867 (= cell_8_9 2)))
 (let (($x1218 (= cell_8_9 1)))
 (or $x1218 $x867 (= cell_8_9 3) (= cell_8_9 4) (= cell_8_9 5) (= cell_8_9 6) (= cell_8_9 7) (= cell_8_9 8) (= cell_8_9 9)))))
(assert
 (let (($x3959 (= cell_9_9 1)))
 (or $x3959 (= cell_9_9 2) (= cell_9_9 3) (= cell_9_9 4) (= cell_9_9 5) (= cell_9_9 6) (= cell_9_9 7) (= cell_9_9 8) (= cell_9_9 9))))
(assert
 (and (distinct cell_1_1 cell_1_2 cell_1_3 cell_1_4 cell_1_5 cell_1_6 cell_1_7 cell_1_8 cell_1_9) true))
(assert
 (and (distinct cell_2_1 cell_2_2 cell_2_3 cell_2_4 cell_2_5 cell_2_6 cell_2_7 cell_2_8 cell_2_9) true))
(assert
 (and (distinct cell_3_1 cell_3_2 cell_3_3 cell_3_4 cell_3_5 cell_3_6 cell_3_7 cell_3_8 cell_3_9) true))
(assert
 (and (distinct cell_4_1 cell_4_2 cell_4_3 cell_4_4 cell_4_5 cell_4_6 cell_4_7 cell_4_8 cell_4_9) true))
(assert
 (and (distinct cell_5_1 cell_5_2 cell_5_3 cell_5_4 cell_5_5 cell_5_6 cell_5_7 cell_5_8 cell_5_9) true))
(assert
 (and (distinct cell_6_1 cell_6_2 cell_6_3 cell_6_4 cell_6_5 cell_6_6 cell_6_7 cell_6_8 cell_6_9) true))
(assert
 (and (distinct cell_7_1 cell_7_2 cell_7_3 cell_7_4 cell_7_5 cell_7_6 cell_7_7 cell_7_8 cell_7_9) true))
(assert
 (and (distinct cell_8_1 cell_8_2 cell_8_3 cell_8_4 cell_8_5 cell_8_6 cell_8_7 cell_8_8 cell_8_9) true))
(assert
 (and (distinct cell_9_1 cell_9_2 cell_9_3 cell_9_4 cell_9_5 cell_9_6 cell_9_7 cell_9_8 cell_9_9) true))
(assert
 (and (distinct cell_1_1 cell_2_1 cell_3_1 cell_4_1 cell_5_1 cell_6_1 cell_7_1 cell_8_1 cell_9_1) true))
(assert
 (and (distinct cell_1_2 cell_2_2 cell_3_2 cell_4_2 cell_5_2 cell_6_2 cell_7_2 cell_8_2 cell_9_2) true))
(assert
 (and (distinct cell_1_3 cell_2_3 cell_3_3 cell_4_3 cell_5_3 cell_6_3 cell_7_3 cell_8_3 cell_9_3) true))
(assert
 (and (distinct cell_1_4 cell_2_4 cell_3_4 cell_4_4 cell_5_4 cell_6_4 cell_7_4 cell_8_4 cell_9_4) true))
(assert
 (and (distinct cell_1_5 cell_2_5 cell_3_5 cell_4_5 cell_5_5 cell_6_5 cell_7_5 cell_8_5 cell_9_5) true))
(assert
 (and (distinct cell_1_6 cell_2_6 cell_3_6 cell_4_6 cell_5_6 cell_6_6 cell_7_6 cell_8_6 cell_9_6) true))
(assert
 (and (distinct cell_1_7 cell_2_7 cell_3_7 cell_4_7 cell_5_7 cell_6_7 cell_7_7 cell_8_7 cell_9_7) true))
(assert
 (and (distinct cell_1_8 cell_2_8 cell_3_8 cell_4_8 cell_5_8 cell_6_8 cell_7_8 cell_8_8 cell_9_8) true))
(assert
 (and (distinct cell_1_9 cell_2_9 cell_3_9 cell_4_9 cell_5_9 cell_6_9 cell_7_9 cell_8_9 cell_9_9) true))
(assert
 (and (distinct cell_1_1 cell_1_2 cell_1_3 cell_2_1 cell_2_2 cell_2_3 cell_3_1 cell_3_2 cell_3_3) true))
(assert
 (and (distinct cell_1_4 cell_1_5 cell_1_6 cell_2_4 cell_2_5 cell_2_6 cell_3_4 cell_3_5 cell_3_6) true))
(assert
 (and (distinct cell_1_7 cell_1_8 cell_1_9 cell_2_7 cell_2_8 cell_2_9 cell_3_7 cell_3_8 cell_3_9) true))
(assert
 (and (distinct cell_4_1 cell_4_2 cell_4_3 cell_5_1 cell_5_2 cell_5_3 cell_6_1 cell_6_2 cell_6_3) true))
(assert
 (and (distinct cell_4_4 cell_4_5 cell_4_6 cell_5_4 cell_5_5 cell_5_6 cell_6_4 cell_6_5 cell_6_6) true))
(assert
 (and (distinct cell_4_7 cell_4_8 cell_4_9 cell_5_7 cell_5_8 cell_5_9 cell_6_7 cell_6_8 cell_6_9) true))
(assert
 (and (distinct cell_7_1 cell_7_2 cell_7_3 cell_8_1 cell_8_2 cell_8_3 cell_9_1 cell_9_2 cell_9_3) true))
(assert
 (and (distinct cell_7_4 cell_7_5 cell_7_6 cell_8_4 cell_8_5 cell_8_6 cell_9_4 cell_9_5 cell_9_6) true))
(assert
 (and (distinct cell_7_7 cell_7_8 cell_7_9 cell_8_7 cell_8_8 cell_8_9 cell_9_7 cell_9_8 cell_9_9) true))
(assert
 (let (($x4068 (and (distinct cell_5_9 cell_6_8 cell_7_7 cell_8_6) true)))
 (let (($x3521 (and (distinct cell_2_9 cell_3_8 cell_4_7 cell_5_6 cell_6_5 cell_7_4 cell_8_3 cell_9_2) true)))
 (let (($x2029 (and (distinct cell_1_8 cell_2_7 cell_3_6 cell_4_5 cell_5_4 cell_6_3 cell_7_2 cell_8_1) true)))
 (let (($x121 (and (distinct cell_1_5 cell_2_4 cell_3_3 cell_4_2) true)))
 (let (($x305 (and (distinct cell_5_1 cell_6_2 cell_7_3 cell_8_4) true)))
 (let (($x2705 (and (distinct cell_2_1 cell_3_2 cell_4_3 cell_5_4 cell_6_5 cell_7_6 cell_8_7 cell_9_8) true)))
 (let (($x4083 (and (distinct cell_1_2 cell_2_3 cell_3_4 cell_4_5 cell_5_6 cell_6_7 cell_7_8 cell_8_9) true)))
 (let (($x3573 (and (distinct cell_1_5 cell_2_6 cell_3_7 cell_4_8) true)))
 (and $x3573 $x4083 $x2705 $x305 $x121 $x2029 $x3521 $x4068))))))))))
(assert
 (= cell_6_1 2))
(check-sat)
